0 2048
1 1897
2 1877
3 1730
4 1680
5 1680
6 1680
7 1669
8 1669
9 1669
10 1650
11 1625
12 1621
13 1572
14 1572
15 1560
16 1439
17 1439
18 1439
19 1420
20 1418
21 1418
22 1418
23 1387
24 1387
25 1379
26 1344
27 1336
28 1336
29 1336
30 1305
31 1305
32 1305
33 1305
34 1293
35 1293
36 1279
37 1268
38 1241
39 1241
40 1238
41 1238
42 1238
43 1200
44 1200
45 1200
46 1200
47 1198
48 1198
49 1198
50 1198
51 1198
52 1198
53 1192
54 1192
55 1192
56 1192
57 1192
58 1192
59 1192
60 1192
61 1192
62 1192
63 1192
64 1192
65 1192
66 1192
67 1192
68 1178
69 1178
70 1178
71 1178
72 1178
73 1178
74 1178
75 1178
76 1178
77 1178
78 1178
79 1178
80 1178
81 1139
82 1139
83 1139
84 1135
85 1135
86 1135
87 1135
88 1135
89 1135
90 1135
91 1135
92 1135
93 1135
94 1135
95 1135
96 1135
97 1135
98 1135
99 1135
100 1135
101 1135
102 1135
103 1135
104 1135
105 1135
106 1135
107 1135
108 1135
109 1135
110 1135
111 1135
112 1135
113 1135
114 1135
115 1135
116 1135
117 1135
118 1135
119 1135
120 1125
121 1125
122 1125
123 1125
124 1125
125 1125
126 1125
127 1125
128 1125
129 1092
130 1092
131 1092
132 1092
133 1092
134 1092
135 1092
136 1092
137 1092
138 1092
139 1092
140 1092
141 1092
142 1092
143 1092
144 1092
145 1092
146 1092
147 1092
148 1092
149 1092
150 1092
151 1092
152 1077
153 1077
154 1077
155 1077
156 1077
157 1077
158 1077
159 1077
160 1077
161 1077
162 1077
163 1077
164 1077
165 1077
166 1077
167 1077
168 1077
169 1077
170 1077
171 1077
172 1077
173 1077
174 1077
175 1077
176 1077
177 1077
178 1077
179 1077
180 1065
181 1065
182 1065
183 1065
184 1065
185 1065
186 1065
187 1065
188 1065
189 1065
190 1065
191 1065
192 1065
193 1065
194 1065
195 1065
196 1065
197 1065
198 1065
199 1065
200 1065
201 1065
202 1065
203 1065
204 1065
205 1065
206 1065
207 1065
208 1065
209 1065
210 1065
211 1065
212 1065
213 1065
214 1065
215 1065
216 1065
217 1065
218 1053
219 1053
220 1053
221 1053
222 1053
223 1053
224 1053
225 1053
226 1053
227 1053
228 1053
229 1053
230 1053
231 1053
232 1053
233 1053
234 1053
235 1053
236 1053
237 1053
238 1053
239 1053
240 1005
241 1005
242 1005
243 1005
244 1005
245 1005
246 1005
247 1005
248 1005
249 1005
250 1005
251 1005
252 1005
253 1005
254 1005
255 1005
256 1005
257 1005
258 1005
259 1005
260 1005
261 1005
262 1005
263 1005
264 1005
265 1005
266 1005
267 1005
268 1005
269 1005
270 1005
271 1005
272 1005
273 1005
274 1005
275 1005
276 1005
277 1005
278 1005
279 1005
280 1005
281 1005
282 1005
283 1005
284 1005
285 1005
286 1005
287 1005
288 1005
289 1005
290 1005
291 1005
292 1005
293 1005
294 1005
295 1005
296 1005
297 1005
298 1005
299 1005
300 1005
301 1005
302 1005
303 1005
304 1005
305 1005
306 1005
307 1005
308 1005
309 1005
310 1005
311 1005
312 1005
313 1005
314 1005
315 1005
316 1005
317 1005
318 1005
319 1005
320 1005
321 1005
322 1005
323 1005
324 1005
325 1005
326 1005
327 1005
328 1005
329 1005
330 1005
331 1005
332 1005
333 1005
334 1005
335 1005
336 1005
337 1005
338 1005
339 1005
340 1005
341 1005
342 1005
343 1005
344 1005
345 1005
346 1005
347 1005
348 1005
349 1005
350 1005
351 1005
352 1005
353 1005
354 1005
355 1005
356 1005
357 1005
358 1005
359 1005
360 1005
361 1005
362 1005
363 1005
364 1005
365 1005
366 1005
367 1005
368 1005
369 1005
370 1005
371 1005
372 1005
373 1005
374 1005
375 1005
376 1005
377 1005
378 1005
379 1005
380 1005
381 1005
382 1005
383 1005
384 1005
385 1005
386 1005
387 1005
388 1005
389 1005
390 1005
391 1005
392 1005
393 1005
394 1005
395 1005
396 1005
397 1005
398 1005
399 1005
400 1005
401 1005
402 1005
403 1005
404 1005
405 1005
406 1005
407 1005
408 1005
409 1005
410 1005
411 1005
412 1005
413 1005
414 1005
415 1005
416 1005
417 1005
418 1005
419 1005
420 1005
421 1005
422 1005
423 1005
424 1005
425 1005
426 1005
427 1005
428 1005
429 1005
430 1005
431 1005
432 1005
433 1005
434 1005
435 1005
436 1005
437 1005
438 1005
439 1005
440 1005
441 1005
442 1005
443 1005
444 1005
445 1005
446 1005
447 1005
448 1005
449 1005
450 1005
451 1005
452 1005
453 1005
454 1005
455 1005
456 1005
457 1005
458 1005
459 1005
460 1005
461 1005
462 1005
463 1005
464 1005
465 1005
466 1005
467 1005
468 1005
469 1005
470 1005
471 1005
472 1005
473 1005
474 1005
475 1005
476 1005
477 1005
478 1005
479 1005
480 1005
481 1005
482 1005
483 1005
484 1005
485 1005
486 1005
487 1005
488 1005
489 1005
490 1005
491 1005
492 1005
493 1005
494 1005
495 1005
496 1005
497 1005
498 1005
499 1005
500 1005
501 1005
502 1005
503 1005
504 1005
505 1005
506 1005
507 1005
508 1005
509 1005
510 1005
511 1005
512 1005
513 1005
514 1005
515 1005
516 1005
517 1005
518 1005
519 1005
520 1005
521 1005
522 1005
523 1005
524 1005
525 1005
526 1005
527 1005
528 1005
529 1005
530 1005
531 1005
532 1005
533 1005
534 1005
535 1005
536 1005
537 1005
538 1005
539 1005
540 1005
541 1005
542 1005
543 1005
544 1005
545 1005
546 1005
547 1005
548 1005
549 1005
550 1005
551 1005
552 1005
553 1005
554 1005
555 1005
556 1005
557 1005
558 1005
559 1005
560 1005
561 1005
562 1005
563 1005
564 1005
565 1005
566 1005
567 1005
568 1005
569 1005
570 1005
571 1005
572 1005
573 1005
574 1005
575 1005
576 1005
577 1005
578 1005
579 1005
580 1005
581 1005
582 1005
583 1005
584 1005
585 1005
586 1005
587 1005
588 1005
589 1005
590 1005
591 1005
592 1005
593 1005
594 1005
595 1005
596 1005
597 1005
598 1005
599 1005
600 1005
601 1005
602 1005
603 1005
604 1005
605 1005
606 1005
607 1005
608 1005
609 1005
610 1005
611 1005
612 1005
613 1005
614 1005
615 1005
616 1005
617 1005
618 1005
619 1005
620 1005
621 1005
622 1005
623 1005
624 1005
625 1005
626 1005
627 1005
628 1005
629 1005
630 1005
631 1005
632 1005
633 1005
634 1005
635 1005
636 1005
637 1005
638 1005
639 1005
640 1005
641 1005
642 1005
643 1005
644 1005
645 1005
646 1005
647 1005
648 1005
649 1005
650 1005
651 1005
652 1005
653 1005
654 1005
655 1005
656 1005
657 1005
658 1005
659 1005
660 1005
661 1005
662 1005
663 1005
664 1005
665 1005
666 1005
667 1005
668 1005
669 1005
670 1005
671 1005
672 1005
673 1005
674 1005
675 1005
676 1005
677 1005
678 1005
679 1005
680 1005
681 1005
682 1005
683 1005
684 1005
685 1005
686 1005
687 1005
688 1005
689 1005
690 1005
691 1005
692 1005
693 1005
694 1005
695 1005
696 1005
697 1005
698 1005
699 1005
700 1005
701 1005
702 1005
703 1005
704 1005
705 1005
706 1005
707 1005
708 1005
709 1005
710 1005
711 1005
712 1005
713 1005
714 1005
715 1005
716 1005
717 1005
718 1005
719 1005
720 1005
721 1005
722 1005
723 1005
724 1005
725 1005
726 1005
727 1005
728 1005
729 1005
730 1005
731 1005
732 1005
733 1005
734 1005
735 1005
736 1005
737 1005
738 1005
739 1005
740 1005
741 1005
742 1005
743 1005
744 1005
745 1005
746 1005
747 1005
748 1005
749 1005
750 1005
751 1005
752 1005
753 1005
754 1005
755 1005
756 1005
757 1005
758 1005
759 1005
760 1005
761 1005
762 1005
763 1005
764 1005
765 1005
766 1005
767 1005
768 1005
769 1005
770 1005
771 1005
772 1005
773 1005
774 1005
775 1005
776 1005
777 1005
778 1005
779 1005
780 1005
781 1005
782 1005
783 1005
784 1005
785 1005
786 1005
787 1005
788 1005
789 1005
790 1005
791 1005
792 1005
793 1005
794 1005
795 1005
796 1005
797 1005
798 1005
799 1005
800 1005
801 1005
802 1005
803 1005
804 1005
805 1005
806 1005
807 1005
808 1005
809 1005
810 1005
811 1005
812 1005
813 1005
814 1005
815 1005
816 1005
817 1005
818 1005
819 1005
820 1005
821 1005
822 1005
823 1005
824 1005
825 1005
826 1005
827 1005
828 1005
829 1005
830 1005
831 1005
832 1005
833 1005
834 1005
835 1005
836 1005
837 1005
838 1005
839 1005
840 1005
841 1005
842 1005
843 1005
844 1005
845 1005
846 1005
847 1005
848 1005
849 1005
850 1005
851 1005
852 1005
853 1005
854 1005
855 1005
856 1005
857 1005
858 1005
859 1005
860 1005
861 1005
862 1005
863 1005
864 1005
865 1005
866 1005
867 1005
868 1005
869 1005
870 1005
871 1005
872 1005
873 1005
874 1005
875 1005
876 1005
877 1005
878 1005
879 1005
880 1005
881 1005
882 1005
883 1005
884 1005
885 1005
886 1005
887 1005
888 1005
889 1005
890 1005
891 1005
892 1005
893 1005
894 1005
895 1005
896 1005
897 1005
898 1005
899 1005
900 1005
901 1005
902 1005
903 1005
904 1005
905 1005
906 1005
907 1005
908 1005
909 1005
910 1005
911 1005
912 1005
913 1005
914 1005
915 1005
916 1005
917 1005
918 1005
919 1005
920 1005
921 1005
922 1005
923 1005
924 1005
925 1005
926 1005
927 1005
928 1005
929 1005
930 1005
931 1005
932 1005
933 1005
934 1005
935 1005
936 1005
937 1005
938 1005
939 1005
940 1005
941 1005
942 1005
943 1005
944 1005
945 1005
946 1005
947 1005
948 1005
949 1005
950 1005
951 1005
952 1005
953 1005
954 1005
955 1005
956 1005
957 1005
958 1005
959 1005
960 1005
961 1005
962 1005
963 1005
964 1005
965 1005
966 1005
967 1005
968 1005
969 1005
970 1005
971 1005
972 1005
973 1005
974 1005
975 1005
976 1005
977 1005
978 1005
979 1005
980 1005
981 1005
982 1005
983 1005
984 1005
985 1005
986 1005
987 1005
988 1005
989 1005
990 1005
991 1005
992 1005
993 1005
994 1005
995 1005
996 1005
997 1005
998 1005
999 1005
Best: [[13,14,18,29,9,25],
       [31,7,4,3,24,5,12,19,30,21],
       [28,6,26,11,16,10,23,15],
       [27,8,20,32,22,2,17]], fitness: 1005
